
  22    4
  10   10   10   10

   0   0   0   0   0   5 2 3 4 5 7 
   7  10  10  10  10   5 18 11 10 8 6 
   3  10  10  10  10   8 21 20 19 18 17 16 15 9 
   6  10  10  10  10   9 21 20 18 17 16 15 14 13 12 
   9  10  10  10  10   7 20 18 17 15 14 13 12 
   5  10  10  10  10   5 17 16 15 14 12 
   5  10  10  10  10   4 19 16 13 12 
   3  10  10  10  10   3 16 14 12 
   4  10  10  10  10   3 14 13 12 
   1  10  10  10  10   2 19 15 
   8  10  10  10  10   1 13 
   1  10  10  10  10   1 22
   5  10  10  10  10   1 22
   5  10  10  10  10   1 22
   4  10  10  10  10   1 22
   4  10  10  10  10   1 22
   8  10  10  10  10   1 22
   3  10  10  10  10   1 22
   7  10  10  10  10   1 22
   9  10  10  10  10   1 22
   5  10  10  10  10   1 22
   0   0   0   0   0   0 
